Random number seeds ... 
        34373861       -56455096
simpraise
leopoldo.sanchez-rodriguez@inra.fr
  
FILE insim.001                     
NAME_OF_THIS_RUN insim                                             
  
INPUT_PARAMETERS
************************************************
* monoecious
Total_#_traits:                                       1
Total_#_selected_loci:                                8
Loci_trait_X:                                         4
Pleiotropic_loci:                                     0
Loci_trait_Y:                                         4
Tmax:                                                 1
#_male_parents:                                       18
#_female_parents:                                     18
#_scored_candidates:                                  36
#_replicates:                                         1
************************************************
  
OUTPUT VARIABLES
************************************************
 
Genotypic_mean_X
  -5.5555555555555552E-002   0.0000000000000000     
  -5.5555555555555552E-002   0.0000000000000000     
Genotypic_mean_Y
   0.0000000000000000        0.0000000000000000     
   0.0000000000000000        0.0000000000000000     
Genotypic_mean_xx
  -5.5555555555555552E-002   0.0000000000000000     
  -5.5555555555555552E-002   0.0000000000000000     
Genotypic_mean_yy
  0.11111111111111110        0.0000000000000000     
  0.13888888888888890        0.0000000000000000     
Genotypic_mean_xy
   0.0000000000000000        0.0000000000000000     
   0.0000000000000000        0.0000000000000000     
Genotypic_mean_yx
   0.0000000000000000        0.0000000000000000     
   0.0000000000000000        0.0000000000000000     
Genotypic_variance_X
   1.6635802469135801        0.0000000000000000     
   2.7746913580246915        0.0000000000000000     
Genotypic_variance_Y
   0.0000000000000000        0.0000000000000000     
   0.0000000000000000        0.0000000000000000     
Genotypic_covariance_XY
   0.0000000000000000        0.0000000000000000     
   0.0000000000000000        0.0000000000000000     
Additive_variance_X
   1.6635802469135803        0.0000000000000000     
   2.7746913580246915        0.0000000000000000     
Additive_variance_Y
   0.0000000000000000        0.0000000000000000     
   0.0000000000000000        0.0000000000000000     
Additive_covariance_XY
   0.0000000000000000        0.0000000000000000     
   0.0000000000000000        0.0000000000000000     
Dominance_variance_X
   0.0000000000000000        0.0000000000000000     
   0.0000000000000000        0.0000000000000000     
Dominance_variance_Y
   0.0000000000000000        0.0000000000000000     
   0.0000000000000000        0.0000000000000000     
Additive_Genic_X
   1.7638888888888893        0.0000000000000000     
   1.9922839506172840        0.0000000000000000     
Additive_Genic_Y
   1.7175925925925926        0.0000000000000000     
   1.8032407407407409        0.0000000000000000     
Dominance_Genic_X
   0.0000000000000000        0.0000000000000000     
   0.0000000000000000        0.0000000000000000     
Dominance_Genic_Y
   0.0000000000000000        0.0000000000000000     
   0.0000000000000000        0.0000000000000000     
LD_covariance_X11
  -5.0154320987654329E-002   0.0000000000000000     
  0.39120370370370366        0.0000000000000000     
LD_covariance_X12
   0.0000000000000000        0.0000000000000000     
   0.0000000000000000        0.0000000000000000     
LD_covariance_X22
   0.0000000000000000        0.0000000000000000     
   0.0000000000000000        0.0000000000000000     
LD_covariance_Y33
 -0.14274691358024691        0.0000000000000000     
 -0.28626543209876548        0.0000000000000000     
LD_covariance_Y23
   0.0000000000000000        0.0000000000000000     
   0.0000000000000000        0.0000000000000000     
LD_covariance_Y22
   0.0000000000000000        0.0000000000000000     
   0.0000000000000000        0.0000000000000000     
LD_covariance_XY13
   3.3950617283950643E-002   0.0000000000000000     
  0.28549382716049382        0.0000000000000000     
LD_covariance_XY22
   0.0000000000000000        0.0000000000000000     
   0.0000000000000000        0.0000000000000000     
LD_covariance_XY12
   0.0000000000000000        0.0000000000000000     
   0.0000000000000000        0.0000000000000000     
LD_covariance_XY23
   0.0000000000000000        0.0000000000000000     
   0.0000000000000000        0.0000000000000000     
Pleiotropic_covariance_XY22
   0.0000000000000000        0.0000000000000000     
   0.0000000000000000        0.0000000000000000     
Fiped_tot
   0.0000000000000000        0.0000000000000000     
   0.0000000000000000        0.0000000000000000     
Fimol_tot
   0.0000000000000000        0.0000000000000000     
   0.0000000000000000        0.0000000000000000     
Coaped
   1.3888888888888888E-002   0.0000000000000000     
   2.4498456790123458E-002   0.0000000000000000     
Coamol
   1.3888888888888888E-002   0.0000000000000000     
   2.3823302469135707E-002   0.0000000000000000     
Coa_newg
   0.0000000000000000        0.0000000000000000     
   2.2810570987654322E-002   0.0000000000000000     
